% File represents an instance of a Composite Structure problem to be solved by a CP framework
% Created on 2025-03-26 10:41:17.253
T = 58;
n = 9;
m = 12;
edges = [(1, 2),
(4, 5),
(8, 7),
(3, 2),
(5, 6),
(8, 9),
(4, 1),
(4, 7),
(5, 2),
(8, 5),
(3, 6),
(9, 6)];
counts = [|16, 12, 16, 12,
|14, 10, 14, 12,
|14, 12, 14, 16,
|16, 14, 16, 12,
|14, 14, 14, 12,
|14, 12, 14, 12,
|14, 14, 14, 10,
|14, 16, 14, 12,
|14, 14, 14, 12|];
